NAME : census.standard.tour
TYPE : TOUR
DIMENSION : 68
TOUR_SECTION
4
44
57
58
22
13
38
16
5
10
51
45
29
48
24
65
68
53
20
46
60
15
7
31
17
42
62
14
6
25
35
49
64
67
47
63
9
8
32
52
37
34
27
33
66
54
1
3
50
39
2
40
43
56
41
12
28
59
21
23
61
11
26
18
30
55
19
36
-1
EOF
